c *********************************
c * Circuit generated by BenCGen
c *
c * RippleCarryAdderSubtractor_82_82_82_OutSunT
c *
c * Ports with 1 gate(s): 2
c * Ports with 2 gate(s): 494
c * Total gates: 496
c *********************************
p cnf 660 1733
1 249 0
-1 -249 0
1 -248 0
249 -248 0
-1 -249 248 0
248 250 0
-248 -250 0
83 248 -251 0
-83 248 251 0
83 -248 251 0
-83 -248 -251 0
84 248 -252 0
-84 248 252 0
84 -248 252 0
-84 -248 -252 0
85 248 -253 0
-85 248 253 0
85 -248 253 0
-85 -248 -253 0
86 248 -254 0
-86 248 254 0
86 -248 254 0
-86 -248 -254 0
87 248 -255 0
-87 248 255 0
87 -248 255 0
-87 -248 -255 0
88 248 -256 0
-88 248 256 0
88 -248 256 0
-88 -248 -256 0
89 248 -257 0
-89 248 257 0
89 -248 257 0
-89 -248 -257 0
90 248 -258 0
-90 248 258 0
90 -248 258 0
-90 -248 -258 0
91 248 -259 0
-91 248 259 0
91 -248 259 0
-91 -248 -259 0
92 248 -260 0
-92 248 260 0
92 -248 260 0
-92 -248 -260 0
93 248 -261 0
-93 248 261 0
93 -248 261 0
-93 -248 -261 0
94 248 -262 0
-94 248 262 0
94 -248 262 0
-94 -248 -262 0
95 248 -263 0
-95 248 263 0
95 -248 263 0
-95 -248 -263 0
96 248 -264 0
-96 248 264 0
96 -248 264 0
-96 -248 -264 0
97 248 -265 0
-97 248 265 0
97 -248 265 0
-97 -248 -265 0
98 248 -266 0
-98 248 266 0
98 -248 266 0
-98 -248 -266 0
99 248 -267 0
-99 248 267 0
99 -248 267 0
-99 -248 -267 0
100 248 -268 0
-100 248 268 0
100 -248 268 0
-100 -248 -268 0
101 248 -269 0
-101 248 269 0
101 -248 269 0
-101 -248 -269 0
102 248 -270 0
-102 248 270 0
102 -248 270 0
-102 -248 -270 0
103 248 -271 0
-103 248 271 0
103 -248 271 0
-103 -248 -271 0
104 248 -272 0
-104 248 272 0
104 -248 272 0
-104 -248 -272 0
105 248 -273 0
-105 248 273 0
105 -248 273 0
-105 -248 -273 0
106 248 -274 0
-106 248 274 0
106 -248 274 0
-106 -248 -274 0
107 248 -275 0
-107 248 275 0
107 -248 275 0
-107 -248 -275 0
108 248 -276 0
-108 248 276 0
108 -248 276 0
-108 -248 -276 0
109 248 -277 0
-109 248 277 0
109 -248 277 0
-109 -248 -277 0
110 248 -278 0
-110 248 278 0
110 -248 278 0
-110 -248 -278 0
111 248 -279 0
-111 248 279 0
111 -248 279 0
-111 -248 -279 0
112 248 -280 0
-112 248 280 0
112 -248 280 0
-112 -248 -280 0
113 248 -281 0
-113 248 281 0
113 -248 281 0
-113 -248 -281 0
114 248 -282 0
-114 248 282 0
114 -248 282 0
-114 -248 -282 0
115 248 -283 0
-115 248 283 0
115 -248 283 0
-115 -248 -283 0
116 248 -284 0
-116 248 284 0
116 -248 284 0
-116 -248 -284 0
117 248 -285 0
-117 248 285 0
117 -248 285 0
-117 -248 -285 0
118 248 -286 0
-118 248 286 0
118 -248 286 0
-118 -248 -286 0
119 248 -287 0
-119 248 287 0
119 -248 287 0
-119 -248 -287 0
120 248 -288 0
-120 248 288 0
120 -248 288 0
-120 -248 -288 0
121 248 -289 0
-121 248 289 0
121 -248 289 0
-121 -248 -289 0
122 248 -290 0
-122 248 290 0
122 -248 290 0
-122 -248 -290 0
123 248 -291 0
-123 248 291 0
123 -248 291 0
-123 -248 -291 0
124 248 -292 0
-124 248 292 0
124 -248 292 0
-124 -248 -292 0
125 248 -293 0
-125 248 293 0
125 -248 293 0
-125 -248 -293 0
126 248 -294 0
-126 248 294 0
126 -248 294 0
-126 -248 -294 0
127 248 -295 0
-127 248 295 0
127 -248 295 0
-127 -248 -295 0
128 248 -296 0
-128 248 296 0
128 -248 296 0
-128 -248 -296 0
129 248 -297 0
-129 248 297 0
129 -248 297 0
-129 -248 -297 0
130 248 -298 0
-130 248 298 0
130 -248 298 0
-130 -248 -298 0
131 248 -299 0
-131 248 299 0
131 -248 299 0
-131 -248 -299 0
132 248 -300 0
-132 248 300 0
132 -248 300 0
-132 -248 -300 0
133 248 -301 0
-133 248 301 0
133 -248 301 0
-133 -248 -301 0
134 248 -302 0
-134 248 302 0
134 -248 302 0
-134 -248 -302 0
135 248 -303 0
-135 248 303 0
135 -248 303 0
-135 -248 -303 0
136 248 -304 0
-136 248 304 0
136 -248 304 0
-136 -248 -304 0
137 248 -305 0
-137 248 305 0
137 -248 305 0
-137 -248 -305 0
138 248 -306 0
-138 248 306 0
138 -248 306 0
-138 -248 -306 0
139 248 -307 0
-139 248 307 0
139 -248 307 0
-139 -248 -307 0
140 248 -308 0
-140 248 308 0
140 -248 308 0
-140 -248 -308 0
141 248 -309 0
-141 248 309 0
141 -248 309 0
-141 -248 -309 0
142 248 -310 0
-142 248 310 0
142 -248 310 0
-142 -248 -310 0
143 248 -311 0
-143 248 311 0
143 -248 311 0
-143 -248 -311 0
144 248 -312 0
-144 248 312 0
144 -248 312 0
-144 -248 -312 0
145 248 -313 0
-145 248 313 0
145 -248 313 0
-145 -248 -313 0
146 248 -314 0
-146 248 314 0
146 -248 314 0
-146 -248 -314 0
147 248 -315 0
-147 248 315 0
147 -248 315 0
-147 -248 -315 0
148 248 -316 0
-148 248 316 0
148 -248 316 0
-148 -248 -316 0
149 248 -317 0
-149 248 317 0
149 -248 317 0
-149 -248 -317 0
150 248 -318 0
-150 248 318 0
150 -248 318 0
-150 -248 -318 0
151 248 -319 0
-151 248 319 0
151 -248 319 0
-151 -248 -319 0
152 248 -320 0
-152 248 320 0
152 -248 320 0
-152 -248 -320 0
153 248 -321 0
-153 248 321 0
153 -248 321 0
-153 -248 -321 0
154 248 -322 0
-154 248 322 0
154 -248 322 0
-154 -248 -322 0
155 248 -323 0
-155 248 323 0
155 -248 323 0
-155 -248 -323 0
156 248 -324 0
-156 248 324 0
156 -248 324 0
-156 -248 -324 0
157 248 -325 0
-157 248 325 0
157 -248 325 0
-157 -248 -325 0
158 248 -326 0
-158 248 326 0
158 -248 326 0
-158 -248 -326 0
159 248 -327 0
-159 248 327 0
159 -248 327 0
-159 -248 -327 0
160 248 -328 0
-160 248 328 0
160 -248 328 0
-160 -248 -328 0
161 248 -329 0
-161 248 329 0
161 -248 329 0
-161 -248 -329 0
162 248 -330 0
-162 248 330 0
162 -248 330 0
-162 -248 -330 0
163 248 -331 0
-163 248 331 0
163 -248 331 0
-163 -248 -331 0
164 248 -332 0
-164 248 332 0
164 -248 332 0
-164 -248 -332 0
1 251 -334 0
-1 251 334 0
1 -251 334 0
-1 -251 -334 0
334 248 -165 0
-334 248 165 0
334 -248 165 0
-334 -248 -165 0
248 -335 0
334 -335 0
-248 -334 335 0
251 -336 0
1 -336 0
-251 -1 336 0
-335 333 0
-336 333 0
335 336 -333 0
2 252 -338 0
-2 252 338 0
2 -252 338 0
-2 -252 -338 0
338 333 -166 0
-338 333 166 0
338 -333 166 0
-338 -333 -166 0
333 -339 0
338 -339 0
-333 -338 339 0
252 -340 0
2 -340 0
-252 -2 340 0
-339 337 0
-340 337 0
339 340 -337 0
3 253 -342 0
-3 253 342 0
3 -253 342 0
-3 -253 -342 0
342 337 -167 0
-342 337 167 0
342 -337 167 0
-342 -337 -167 0
337 -343 0
342 -343 0
-337 -342 343 0
253 -344 0
3 -344 0
-253 -3 344 0
-343 341 0
-344 341 0
343 344 -341 0
4 254 -346 0
-4 254 346 0
4 -254 346 0
-4 -254 -346 0
346 341 -168 0
-346 341 168 0
346 -341 168 0
-346 -341 -168 0
341 -347 0
346 -347 0
-341 -346 347 0
254 -348 0
4 -348 0
-254 -4 348 0
-347 345 0
-348 345 0
347 348 -345 0
5 255 -350 0
-5 255 350 0
5 -255 350 0
-5 -255 -350 0
350 345 -169 0
-350 345 169 0
350 -345 169 0
-350 -345 -169 0
345 -351 0
350 -351 0
-345 -350 351 0
255 -352 0
5 -352 0
-255 -5 352 0
-351 349 0
-352 349 0
351 352 -349 0
6 256 -354 0
-6 256 354 0
6 -256 354 0
-6 -256 -354 0
354 349 -170 0
-354 349 170 0
354 -349 170 0
-354 -349 -170 0
349 -355 0
354 -355 0
-349 -354 355 0
256 -356 0
6 -356 0
-256 -6 356 0
-355 353 0
-356 353 0
355 356 -353 0
7 257 -358 0
-7 257 358 0
7 -257 358 0
-7 -257 -358 0
358 353 -171 0
-358 353 171 0
358 -353 171 0
-358 -353 -171 0
353 -359 0
358 -359 0
-353 -358 359 0
257 -360 0
7 -360 0
-257 -7 360 0
-359 357 0
-360 357 0
359 360 -357 0
8 258 -362 0
-8 258 362 0
8 -258 362 0
-8 -258 -362 0
362 357 -172 0
-362 357 172 0
362 -357 172 0
-362 -357 -172 0
357 -363 0
362 -363 0
-357 -362 363 0
258 -364 0
8 -364 0
-258 -8 364 0
-363 361 0
-364 361 0
363 364 -361 0
9 259 -366 0
-9 259 366 0
9 -259 366 0
-9 -259 -366 0
366 361 -173 0
-366 361 173 0
366 -361 173 0
-366 -361 -173 0
361 -367 0
366 -367 0
-361 -366 367 0
259 -368 0
9 -368 0
-259 -9 368 0
-367 365 0
-368 365 0
367 368 -365 0
10 260 -370 0
-10 260 370 0
10 -260 370 0
-10 -260 -370 0
370 365 -174 0
-370 365 174 0
370 -365 174 0
-370 -365 -174 0
365 -371 0
370 -371 0
-365 -370 371 0
260 -372 0
10 -372 0
-260 -10 372 0
-371 369 0
-372 369 0
371 372 -369 0
11 261 -374 0
-11 261 374 0
11 -261 374 0
-11 -261 -374 0
374 369 -175 0
-374 369 175 0
374 -369 175 0
-374 -369 -175 0
369 -375 0
374 -375 0
-369 -374 375 0
261 -376 0
11 -376 0
-261 -11 376 0
-375 373 0
-376 373 0
375 376 -373 0
12 262 -378 0
-12 262 378 0
12 -262 378 0
-12 -262 -378 0
378 373 -176 0
-378 373 176 0
378 -373 176 0
-378 -373 -176 0
373 -379 0
378 -379 0
-373 -378 379 0
262 -380 0
12 -380 0
-262 -12 380 0
-379 377 0
-380 377 0
379 380 -377 0
13 263 -382 0
-13 263 382 0
13 -263 382 0
-13 -263 -382 0
382 377 -177 0
-382 377 177 0
382 -377 177 0
-382 -377 -177 0
377 -383 0
382 -383 0
-377 -382 383 0
263 -384 0
13 -384 0
-263 -13 384 0
-383 381 0
-384 381 0
383 384 -381 0
14 264 -386 0
-14 264 386 0
14 -264 386 0
-14 -264 -386 0
386 381 -178 0
-386 381 178 0
386 -381 178 0
-386 -381 -178 0
381 -387 0
386 -387 0
-381 -386 387 0
264 -388 0
14 -388 0
-264 -14 388 0
-387 385 0
-388 385 0
387 388 -385 0
15 265 -390 0
-15 265 390 0
15 -265 390 0
-15 -265 -390 0
390 385 -179 0
-390 385 179 0
390 -385 179 0
-390 -385 -179 0
385 -391 0
390 -391 0
-385 -390 391 0
265 -392 0
15 -392 0
-265 -15 392 0
-391 389 0
-392 389 0
391 392 -389 0
16 266 -394 0
-16 266 394 0
16 -266 394 0
-16 -266 -394 0
394 389 -180 0
-394 389 180 0
394 -389 180 0
-394 -389 -180 0
389 -395 0
394 -395 0
-389 -394 395 0
266 -396 0
16 -396 0
-266 -16 396 0
-395 393 0
-396 393 0
395 396 -393 0
17 267 -398 0
-17 267 398 0
17 -267 398 0
-17 -267 -398 0
398 393 -181 0
-398 393 181 0
398 -393 181 0
-398 -393 -181 0
393 -399 0
398 -399 0
-393 -398 399 0
267 -400 0
17 -400 0
-267 -17 400 0
-399 397 0
-400 397 0
399 400 -397 0
18 268 -402 0
-18 268 402 0
18 -268 402 0
-18 -268 -402 0
402 397 -182 0
-402 397 182 0
402 -397 182 0
-402 -397 -182 0
397 -403 0
402 -403 0
-397 -402 403 0
268 -404 0
18 -404 0
-268 -18 404 0
-403 401 0
-404 401 0
403 404 -401 0
19 269 -406 0
-19 269 406 0
19 -269 406 0
-19 -269 -406 0
406 401 -183 0
-406 401 183 0
406 -401 183 0
-406 -401 -183 0
401 -407 0
406 -407 0
-401 -406 407 0
269 -408 0
19 -408 0
-269 -19 408 0
-407 405 0
-408 405 0
407 408 -405 0
20 270 -410 0
-20 270 410 0
20 -270 410 0
-20 -270 -410 0
410 405 -184 0
-410 405 184 0
410 -405 184 0
-410 -405 -184 0
405 -411 0
410 -411 0
-405 -410 411 0
270 -412 0
20 -412 0
-270 -20 412 0
-411 409 0
-412 409 0
411 412 -409 0
21 271 -414 0
-21 271 414 0
21 -271 414 0
-21 -271 -414 0
414 409 -185 0
-414 409 185 0
414 -409 185 0
-414 -409 -185 0
409 -415 0
414 -415 0
-409 -414 415 0
271 -416 0
21 -416 0
-271 -21 416 0
-415 413 0
-416 413 0
415 416 -413 0
22 272 -418 0
-22 272 418 0
22 -272 418 0
-22 -272 -418 0
418 413 -186 0
-418 413 186 0
418 -413 186 0
-418 -413 -186 0
413 -419 0
418 -419 0
-413 -418 419 0
272 -420 0
22 -420 0
-272 -22 420 0
-419 417 0
-420 417 0
419 420 -417 0
23 273 -422 0
-23 273 422 0
23 -273 422 0
-23 -273 -422 0
422 417 -187 0
-422 417 187 0
422 -417 187 0
-422 -417 -187 0
417 -423 0
422 -423 0
-417 -422 423 0
273 -424 0
23 -424 0
-273 -23 424 0
-423 421 0
-424 421 0
423 424 -421 0
24 274 -426 0
-24 274 426 0
24 -274 426 0
-24 -274 -426 0
426 421 -188 0
-426 421 188 0
426 -421 188 0
-426 -421 -188 0
421 -427 0
426 -427 0
-421 -426 427 0
274 -428 0
24 -428 0
-274 -24 428 0
-427 425 0
-428 425 0
427 428 -425 0
25 275 -430 0
-25 275 430 0
25 -275 430 0
-25 -275 -430 0
430 425 -189 0
-430 425 189 0
430 -425 189 0
-430 -425 -189 0
425 -431 0
430 -431 0
-425 -430 431 0
275 -432 0
25 -432 0
-275 -25 432 0
-431 429 0
-432 429 0
431 432 -429 0
26 276 -434 0
-26 276 434 0
26 -276 434 0
-26 -276 -434 0
434 429 -190 0
-434 429 190 0
434 -429 190 0
-434 -429 -190 0
429 -435 0
434 -435 0
-429 -434 435 0
276 -436 0
26 -436 0
-276 -26 436 0
-435 433 0
-436 433 0
435 436 -433 0
27 277 -438 0
-27 277 438 0
27 -277 438 0
-27 -277 -438 0
438 433 -191 0
-438 433 191 0
438 -433 191 0
-438 -433 -191 0
433 -439 0
438 -439 0
-433 -438 439 0
277 -440 0
27 -440 0
-277 -27 440 0
-439 437 0
-440 437 0
439 440 -437 0
28 278 -442 0
-28 278 442 0
28 -278 442 0
-28 -278 -442 0
442 437 -192 0
-442 437 192 0
442 -437 192 0
-442 -437 -192 0
437 -443 0
442 -443 0
-437 -442 443 0
278 -444 0
28 -444 0
-278 -28 444 0
-443 441 0
-444 441 0
443 444 -441 0
29 279 -446 0
-29 279 446 0
29 -279 446 0
-29 -279 -446 0
446 441 -193 0
-446 441 193 0
446 -441 193 0
-446 -441 -193 0
441 -447 0
446 -447 0
-441 -446 447 0
279 -448 0
29 -448 0
-279 -29 448 0
-447 445 0
-448 445 0
447 448 -445 0
30 280 -450 0
-30 280 450 0
30 -280 450 0
-30 -280 -450 0
450 445 -194 0
-450 445 194 0
450 -445 194 0
-450 -445 -194 0
445 -451 0
450 -451 0
-445 -450 451 0
280 -452 0
30 -452 0
-280 -30 452 0
-451 449 0
-452 449 0
451 452 -449 0
31 281 -454 0
-31 281 454 0
31 -281 454 0
-31 -281 -454 0
454 449 -195 0
-454 449 195 0
454 -449 195 0
-454 -449 -195 0
449 -455 0
454 -455 0
-449 -454 455 0
281 -456 0
31 -456 0
-281 -31 456 0
-455 453 0
-456 453 0
455 456 -453 0
32 282 -458 0
-32 282 458 0
32 -282 458 0
-32 -282 -458 0
458 453 -196 0
-458 453 196 0
458 -453 196 0
-458 -453 -196 0
453 -459 0
458 -459 0
-453 -458 459 0
282 -460 0
32 -460 0
-282 -32 460 0
-459 457 0
-460 457 0
459 460 -457 0
33 283 -462 0
-33 283 462 0
33 -283 462 0
-33 -283 -462 0
462 457 -197 0
-462 457 197 0
462 -457 197 0
-462 -457 -197 0
457 -463 0
462 -463 0
-457 -462 463 0
283 -464 0
33 -464 0
-283 -33 464 0
-463 461 0
-464 461 0
463 464 -461 0
34 284 -466 0
-34 284 466 0
34 -284 466 0
-34 -284 -466 0
466 461 -198 0
-466 461 198 0
466 -461 198 0
-466 -461 -198 0
461 -467 0
466 -467 0
-461 -466 467 0
284 -468 0
34 -468 0
-284 -34 468 0
-467 465 0
-468 465 0
467 468 -465 0
35 285 -470 0
-35 285 470 0
35 -285 470 0
-35 -285 -470 0
470 465 -199 0
-470 465 199 0
470 -465 199 0
-470 -465 -199 0
465 -471 0
470 -471 0
-465 -470 471 0
285 -472 0
35 -472 0
-285 -35 472 0
-471 469 0
-472 469 0
471 472 -469 0
36 286 -474 0
-36 286 474 0
36 -286 474 0
-36 -286 -474 0
474 469 -200 0
-474 469 200 0
474 -469 200 0
-474 -469 -200 0
469 -475 0
474 -475 0
-469 -474 475 0
286 -476 0
36 -476 0
-286 -36 476 0
-475 473 0
-476 473 0
475 476 -473 0
37 287 -478 0
-37 287 478 0
37 -287 478 0
-37 -287 -478 0
478 473 -201 0
-478 473 201 0
478 -473 201 0
-478 -473 -201 0
473 -479 0
478 -479 0
-473 -478 479 0
287 -480 0
37 -480 0
-287 -37 480 0
-479 477 0
-480 477 0
479 480 -477 0
38 288 -482 0
-38 288 482 0
38 -288 482 0
-38 -288 -482 0
482 477 -202 0
-482 477 202 0
482 -477 202 0
-482 -477 -202 0
477 -483 0
482 -483 0
-477 -482 483 0
288 -484 0
38 -484 0
-288 -38 484 0
-483 481 0
-484 481 0
483 484 -481 0
39 289 -486 0
-39 289 486 0
39 -289 486 0
-39 -289 -486 0
486 481 -203 0
-486 481 203 0
486 -481 203 0
-486 -481 -203 0
481 -487 0
486 -487 0
-481 -486 487 0
289 -488 0
39 -488 0
-289 -39 488 0
-487 485 0
-488 485 0
487 488 -485 0
40 290 -490 0
-40 290 490 0
40 -290 490 0
-40 -290 -490 0
490 485 -204 0
-490 485 204 0
490 -485 204 0
-490 -485 -204 0
485 -491 0
490 -491 0
-485 -490 491 0
290 -492 0
40 -492 0
-290 -40 492 0
-491 489 0
-492 489 0
491 492 -489 0
41 291 -494 0
-41 291 494 0
41 -291 494 0
-41 -291 -494 0
494 489 -205 0
-494 489 205 0
494 -489 205 0
-494 -489 -205 0
489 -495 0
494 -495 0
-489 -494 495 0
291 -496 0
41 -496 0
-291 -41 496 0
-495 493 0
-496 493 0
495 496 -493 0
42 292 -498 0
-42 292 498 0
42 -292 498 0
-42 -292 -498 0
498 493 -206 0
-498 493 206 0
498 -493 206 0
-498 -493 -206 0
493 -499 0
498 -499 0
-493 -498 499 0
292 -500 0
42 -500 0
-292 -42 500 0
-499 497 0
-500 497 0
499 500 -497 0
43 293 -502 0
-43 293 502 0
43 -293 502 0
-43 -293 -502 0
502 497 -207 0
-502 497 207 0
502 -497 207 0
-502 -497 -207 0
497 -503 0
502 -503 0
-497 -502 503 0
293 -504 0
43 -504 0
-293 -43 504 0
-503 501 0
-504 501 0
503 504 -501 0
44 294 -506 0
-44 294 506 0
44 -294 506 0
-44 -294 -506 0
506 501 -208 0
-506 501 208 0
506 -501 208 0
-506 -501 -208 0
501 -507 0
506 -507 0
-501 -506 507 0
294 -508 0
44 -508 0
-294 -44 508 0
-507 505 0
-508 505 0
507 508 -505 0
45 295 -510 0
-45 295 510 0
45 -295 510 0
-45 -295 -510 0
510 505 -209 0
-510 505 209 0
510 -505 209 0
-510 -505 -209 0
505 -511 0
510 -511 0
-505 -510 511 0
295 -512 0
45 -512 0
-295 -45 512 0
-511 509 0
-512 509 0
511 512 -509 0
46 296 -514 0
-46 296 514 0
46 -296 514 0
-46 -296 -514 0
514 509 -210 0
-514 509 210 0
514 -509 210 0
-514 -509 -210 0
509 -515 0
514 -515 0
-509 -514 515 0
296 -516 0
46 -516 0
-296 -46 516 0
-515 513 0
-516 513 0
515 516 -513 0
47 297 -518 0
-47 297 518 0
47 -297 518 0
-47 -297 -518 0
518 513 -211 0
-518 513 211 0
518 -513 211 0
-518 -513 -211 0
513 -519 0
518 -519 0
-513 -518 519 0
297 -520 0
47 -520 0
-297 -47 520 0
-519 517 0
-520 517 0
519 520 -517 0
48 298 -522 0
-48 298 522 0
48 -298 522 0
-48 -298 -522 0
522 517 -212 0
-522 517 212 0
522 -517 212 0
-522 -517 -212 0
517 -523 0
522 -523 0
-517 -522 523 0
298 -524 0
48 -524 0
-298 -48 524 0
-523 521 0
-524 521 0
523 524 -521 0
49 299 -526 0
-49 299 526 0
49 -299 526 0
-49 -299 -526 0
526 521 -213 0
-526 521 213 0
526 -521 213 0
-526 -521 -213 0
521 -527 0
526 -527 0
-521 -526 527 0
299 -528 0
49 -528 0
-299 -49 528 0
-527 525 0
-528 525 0
527 528 -525 0
50 300 -530 0
-50 300 530 0
50 -300 530 0
-50 -300 -530 0
530 525 -214 0
-530 525 214 0
530 -525 214 0
-530 -525 -214 0
525 -531 0
530 -531 0
-525 -530 531 0
300 -532 0
50 -532 0
-300 -50 532 0
-531 529 0
-532 529 0
531 532 -529 0
51 301 -534 0
-51 301 534 0
51 -301 534 0
-51 -301 -534 0
534 529 -215 0
-534 529 215 0
534 -529 215 0
-534 -529 -215 0
529 -535 0
534 -535 0
-529 -534 535 0
301 -536 0
51 -536 0
-301 -51 536 0
-535 533 0
-536 533 0
535 536 -533 0
52 302 -538 0
-52 302 538 0
52 -302 538 0
-52 -302 -538 0
538 533 -216 0
-538 533 216 0
538 -533 216 0
-538 -533 -216 0
533 -539 0
538 -539 0
-533 -538 539 0
302 -540 0
52 -540 0
-302 -52 540 0
-539 537 0
-540 537 0
539 540 -537 0
53 303 -542 0
-53 303 542 0
53 -303 542 0
-53 -303 -542 0
542 537 -217 0
-542 537 217 0
542 -537 217 0
-542 -537 -217 0
537 -543 0
542 -543 0
-537 -542 543 0
303 -544 0
53 -544 0
-303 -53 544 0
-543 541 0
-544 541 0
543 544 -541 0
54 304 -546 0
-54 304 546 0
54 -304 546 0
-54 -304 -546 0
546 541 -218 0
-546 541 218 0
546 -541 218 0
-546 -541 -218 0
541 -547 0
546 -547 0
-541 -546 547 0
304 -548 0
54 -548 0
-304 -54 548 0
-547 545 0
-548 545 0
547 548 -545 0
55 305 -550 0
-55 305 550 0
55 -305 550 0
-55 -305 -550 0
550 545 -219 0
-550 545 219 0
550 -545 219 0
-550 -545 -219 0
545 -551 0
550 -551 0
-545 -550 551 0
305 -552 0
55 -552 0
-305 -55 552 0
-551 549 0
-552 549 0
551 552 -549 0
56 306 -554 0
-56 306 554 0
56 -306 554 0
-56 -306 -554 0
554 549 -220 0
-554 549 220 0
554 -549 220 0
-554 -549 -220 0
549 -555 0
554 -555 0
-549 -554 555 0
306 -556 0
56 -556 0
-306 -56 556 0
-555 553 0
-556 553 0
555 556 -553 0
57 307 -558 0
-57 307 558 0
57 -307 558 0
-57 -307 -558 0
558 553 -221 0
-558 553 221 0
558 -553 221 0
-558 -553 -221 0
553 -559 0
558 -559 0
-553 -558 559 0
307 -560 0
57 -560 0
-307 -57 560 0
-559 557 0
-560 557 0
559 560 -557 0
58 308 -562 0
-58 308 562 0
58 -308 562 0
-58 -308 -562 0
562 557 -222 0
-562 557 222 0
562 -557 222 0
-562 -557 -222 0
557 -563 0
562 -563 0
-557 -562 563 0
308 -564 0
58 -564 0
-308 -58 564 0
-563 561 0
-564 561 0
563 564 -561 0
59 309 -566 0
-59 309 566 0
59 -309 566 0
-59 -309 -566 0
566 561 -223 0
-566 561 223 0
566 -561 223 0
-566 -561 -223 0
561 -567 0
566 -567 0
-561 -566 567 0
309 -568 0
59 -568 0
-309 -59 568 0
-567 565 0
-568 565 0
567 568 -565 0
60 310 -570 0
-60 310 570 0
60 -310 570 0
-60 -310 -570 0
570 565 -224 0
-570 565 224 0
570 -565 224 0
-570 -565 -224 0
565 -571 0
570 -571 0
-565 -570 571 0
310 -572 0
60 -572 0
-310 -60 572 0
-571 569 0
-572 569 0
571 572 -569 0
61 311 -574 0
-61 311 574 0
61 -311 574 0
-61 -311 -574 0
574 569 -225 0
-574 569 225 0
574 -569 225 0
-574 -569 -225 0
569 -575 0
574 -575 0
-569 -574 575 0
311 -576 0
61 -576 0
-311 -61 576 0
-575 573 0
-576 573 0
575 576 -573 0
62 312 -578 0
-62 312 578 0
62 -312 578 0
-62 -312 -578 0
578 573 -226 0
-578 573 226 0
578 -573 226 0
-578 -573 -226 0
573 -579 0
578 -579 0
-573 -578 579 0
312 -580 0
62 -580 0
-312 -62 580 0
-579 577 0
-580 577 0
579 580 -577 0
63 313 -582 0
-63 313 582 0
63 -313 582 0
-63 -313 -582 0
582 577 -227 0
-582 577 227 0
582 -577 227 0
-582 -577 -227 0
577 -583 0
582 -583 0
-577 -582 583 0
313 -584 0
63 -584 0
-313 -63 584 0
-583 581 0
-584 581 0
583 584 -581 0
64 314 -586 0
-64 314 586 0
64 -314 586 0
-64 -314 -586 0
586 581 -228 0
-586 581 228 0
586 -581 228 0
-586 -581 -228 0
581 -587 0
586 -587 0
-581 -586 587 0
314 -588 0
64 -588 0
-314 -64 588 0
-587 585 0
-588 585 0
587 588 -585 0
65 315 -590 0
-65 315 590 0
65 -315 590 0
-65 -315 -590 0
590 585 -229 0
-590 585 229 0
590 -585 229 0
-590 -585 -229 0
585 -591 0
590 -591 0
-585 -590 591 0
315 -592 0
65 -592 0
-315 -65 592 0
-591 589 0
-592 589 0
591 592 -589 0
66 316 -594 0
-66 316 594 0
66 -316 594 0
-66 -316 -594 0
594 589 -230 0
-594 589 230 0
594 -589 230 0
-594 -589 -230 0
589 -595 0
594 -595 0
-589 -594 595 0
316 -596 0
66 -596 0
-316 -66 596 0
-595 593 0
-596 593 0
595 596 -593 0
67 317 -598 0
-67 317 598 0
67 -317 598 0
-67 -317 -598 0
598 593 -231 0
-598 593 231 0
598 -593 231 0
-598 -593 -231 0
593 -599 0
598 -599 0
-593 -598 599 0
317 -600 0
67 -600 0
-317 -67 600 0
-599 597 0
-600 597 0
599 600 -597 0
68 318 -602 0
-68 318 602 0
68 -318 602 0
-68 -318 -602 0
602 597 -232 0
-602 597 232 0
602 -597 232 0
-602 -597 -232 0
597 -603 0
602 -603 0
-597 -602 603 0
318 -604 0
68 -604 0
-318 -68 604 0
-603 601 0
-604 601 0
603 604 -601 0
69 319 -606 0
-69 319 606 0
69 -319 606 0
-69 -319 -606 0
606 601 -233 0
-606 601 233 0
606 -601 233 0
-606 -601 -233 0
601 -607 0
606 -607 0
-601 -606 607 0
319 -608 0
69 -608 0
-319 -69 608 0
-607 605 0
-608 605 0
607 608 -605 0
70 320 -610 0
-70 320 610 0
70 -320 610 0
-70 -320 -610 0
610 605 -234 0
-610 605 234 0
610 -605 234 0
-610 -605 -234 0
605 -611 0
610 -611 0
-605 -610 611 0
320 -612 0
70 -612 0
-320 -70 612 0
-611 609 0
-612 609 0
611 612 -609 0
71 321 -614 0
-71 321 614 0
71 -321 614 0
-71 -321 -614 0
614 609 -235 0
-614 609 235 0
614 -609 235 0
-614 -609 -235 0
609 -615 0
614 -615 0
-609 -614 615 0
321 -616 0
71 -616 0
-321 -71 616 0
-615 613 0
-616 613 0
615 616 -613 0
72 322 -618 0
-72 322 618 0
72 -322 618 0
-72 -322 -618 0
618 613 -236 0
-618 613 236 0
618 -613 236 0
-618 -613 -236 0
613 -619 0
618 -619 0
-613 -618 619 0
322 -620 0
72 -620 0
-322 -72 620 0
-619 617 0
-620 617 0
619 620 -617 0
73 323 -622 0
-73 323 622 0
73 -323 622 0
-73 -323 -622 0
622 617 -237 0
-622 617 237 0
622 -617 237 0
-622 -617 -237 0
617 -623 0
622 -623 0
-617 -622 623 0
323 -624 0
73 -624 0
-323 -73 624 0
-623 621 0
-624 621 0
623 624 -621 0
74 324 -626 0
-74 324 626 0
74 -324 626 0
-74 -324 -626 0
626 621 -238 0
-626 621 238 0
626 -621 238 0
-626 -621 -238 0
621 -627 0
626 -627 0
-621 -626 627 0
324 -628 0
74 -628 0
-324 -74 628 0
-627 625 0
-628 625 0
627 628 -625 0
75 325 -630 0
-75 325 630 0
75 -325 630 0
-75 -325 -630 0
630 625 -239 0
-630 625 239 0
630 -625 239 0
-630 -625 -239 0
625 -631 0
630 -631 0
-625 -630 631 0
325 -632 0
75 -632 0
-325 -75 632 0
-631 629 0
-632 629 0
631 632 -629 0
76 326 -634 0
-76 326 634 0
76 -326 634 0
-76 -326 -634 0
634 629 -240 0
-634 629 240 0
634 -629 240 0
-634 -629 -240 0
629 -635 0
634 -635 0
-629 -634 635 0
326 -636 0
76 -636 0
-326 -76 636 0
-635 633 0
-636 633 0
635 636 -633 0
77 327 -638 0
-77 327 638 0
77 -327 638 0
-77 -327 -638 0
638 633 -241 0
-638 633 241 0
638 -633 241 0
-638 -633 -241 0
633 -639 0
638 -639 0
-633 -638 639 0
327 -640 0
77 -640 0
-327 -77 640 0
-639 637 0
-640 637 0
639 640 -637 0
78 328 -642 0
-78 328 642 0
78 -328 642 0
-78 -328 -642 0
642 637 -242 0
-642 637 242 0
642 -637 242 0
-642 -637 -242 0
637 -643 0
642 -643 0
-637 -642 643 0
328 -644 0
78 -644 0
-328 -78 644 0
-643 641 0
-644 641 0
643 644 -641 0
79 329 -646 0
-79 329 646 0
79 -329 646 0
-79 -329 -646 0
646 641 -243 0
-646 641 243 0
646 -641 243 0
-646 -641 -243 0
641 -647 0
646 -647 0
-641 -646 647 0
329 -648 0
79 -648 0
-329 -79 648 0
-647 645 0
-648 645 0
647 648 -645 0
80 330 -650 0
-80 330 650 0
80 -330 650 0
-80 -330 -650 0
650 645 -244 0
-650 645 244 0
650 -645 244 0
-650 -645 -244 0
645 -651 0
650 -651 0
-645 -650 651 0
330 -652 0
80 -652 0
-330 -80 652 0
-651 649 0
-652 649 0
651 652 -649 0
81 331 -654 0
-81 331 654 0
81 -331 654 0
-81 -331 -654 0
654 649 -245 0
-654 649 245 0
654 -649 245 0
-654 -649 -245 0
649 -655 0
654 -655 0
-649 -654 655 0
331 -656 0
81 -656 0
-331 -81 656 0
-655 653 0
-656 653 0
655 656 -653 0
82 332 -658 0
-82 332 658 0
82 -332 658 0
-82 -332 -658 0
658 653 -246 0
-658 653 246 0
658 -653 246 0
-658 -653 -246 0
653 -659 0
658 -659 0
-653 -658 659 0
332 -660 0
82 -660 0
-332 -82 660 0
-659 657 0
-660 657 0
659 660 -657 0
657 248 -247 0
-657 248 247 0
657 -248 247 0
-657 -248 -247 0
